#       time        depth ve_stress_xx ve_stress_yy ve_stress_xy
           0        10000            0            0            0
           0        30000            0            0            0
           0        50000            0            0            0
           0        70000            0            0            0
           0        90000            0            0            0
        1000        10000        1e+06       -1e+06      1.20855
        1000        30000        1e+06       -1e+06     0.262043
        1000        50000        1e+06       -1e+06     0.560889
        1000        70000        1e+06       -1e+06       0.4247
        1000        90000        1e+06       -1e+06   -0.0175689
        2000        10000       666667      -666667     0.129194
        2000        30000       666667      -666667     0.092464
        2000        50000       666667      -666667    0.0317468
        2000        70000       666667      -666667   0.00101768
        2000        90000       666667      -666667  0.000922495
