#       time        depth ve_stress_xx ve_stress_yy ve_stress_xy beam
           0          500            0            0            0            0
           0         1500            0            0            0    0.0505956
           0         2500            0            0            0     0.356151
           0         3500            0            0            0            0
           0         4500            0            0            0            0
        1000          500      643.653     -643.653     -40109.8  2.14726e-09
        1000         1500     -62209.1      62209.1      -187890     0.048803
        1000         2500     -95278.2      95278.2      -579419     0.357791
        1000         3500      874.574     -874.574     -59049.4  0.000142223
        1000         4500      610.001     -610.001       -13103  4.15264e-08
